120
150
57
45
59
41
50
56
47
59
42
41
58
50
54
43
53
48
50
47
53
47
42
56
47
47
53
54
45
60
45
51
41
58
57
47
54
46
52
46
52
57
47
50
45
46
46
52
52
43
56
52
59
42
60
44
49
46
42
49
47
54
51
57
60
47
46
49
55
59
49
46
52
52
43
56
52
44
47
59
46
52
52
42
42
47
57
58
42
57
53
50
46
42
53
49
48
40
53
44
57
42
53
49
42
50
58
57
52
48
60
42
57
52
41
52
53
45
45
51
54
41
